sat
(objectives
 (obj 4804)
)
(
  (define-fun y0_2 () Int
    1)
  (define-fun x0 () Int
    1)
  (define-fun y0_1 () Int
    1)
  (define-fun x2 () Int
    1)
  (define-fun y1_2 () Int
    1)
  (define-fun x1 () Int
    1)
  (define-fun obj () Int
    4804)
)
